(declare-const a Int)
(declare-const a_1 Int)
(declare-const a_2 Int)
(declare-const a_3 Int)
(declare-const a_4 Int)
(declare-const a_5 Int)
(declare-const a_6 Int)
(declare-const a_7 Int)
(declare-const c Int)
(declare-const c_1 Int)
(declare-const c_2 Int)
(declare-const c_3 Int)
(declare-const p1 Int)
(declare-const p1_1 Int)
(declare-const p1_2 Int)
(declare-const p1_3 Int)
(declare-const p1_4 Int)
(declare-const p1_5 Int)
(declare-const p1_6 Int)
(declare-const p1_7 Int)
(declare-const p1_8 Int)
(declare-const p1_9 Int)
(declare-const p1_10 Int)
(declare-const p1_11 Int)
(declare-const p1_12 Int)
(declare-const p1_13 Int)
(declare-const p1_14 Int)
(declare-const p1_15 Int)
(declare-const p1_16 Int)
(declare-const p1_17 Int)
(declare-const p1_18 Int)
(declare-const p1_19 Int)
(declare-const p2 Bool)
(declare-const p2_1 Bool)
(declare-const p2_2 Bool)
(declare-const p2_3 Bool)
(declare-const p2_4 Bool)
(declare-const p2_5 Bool)
(declare-const p2_6 Bool)
(declare-const p2_7 Bool)
(declare-const p2_8 Bool)
(declare-const p2_9 Bool)
(declare-const p2_10 Bool)
(declare-const p2_11 Bool)
(declare-const p2_12 Bool)
(declare-const p2_13 Bool)
(declare-const p2_14 Bool)
(declare-const p2_15 Bool)
(declare-const p2_16 Bool)
(declare-const p2_17 Bool)
(declare-const p2_18 Bool)
(declare-const p2_19 Bool)
(assert (>= a 0))
(assert (>= a_1 0))
(assert (>= a_2 0))
(assert (>= a_3 0))
(assert (>= a_4 0))
(assert (>= a_5 0))
(assert (>= a_6 0))
(assert (>= a_7 0))
(assert (>= c 0))
(assert (>= c_1 0))
(assert (>= c_2 0))
(assert (>= c_3 0))
(assert (>= p1 0))
(assert (>= p1_1 0))
(assert (>= p1_2 0))
(assert (>= p1_3 0))
(assert (>= p1_4 0))
(assert (>= p1_5 0))
(assert (>= p1_6 0))
(assert (>= p1_7 0))
(assert (>= p1_8 0))
(assert (>= p1_9 0))
(assert (>= p1_10 0))
(assert (>= p1_11 0))
(assert (>= p1_12 0))
(assert (>= p1_13 0))
(assert (>= p1_14 0))
(assert (>= p1_15 0))
(assert (>= p1_16 0))
(assert (>= p1_17 0))
(assert (>= p1_18 0))
(assert (>= p1_19 0))
(assert
 (not
  (=>
   (and (<= p1_19 4) (<= p1_18 4) (<= p1_17 4) (<= p1_16 4) (<= p1_15 4)
    (<= p1_14 4) (<= p1_13 4) (<= p1_12 4) (<= p1_11 4) (<= p1_10 4)
    (<= p1_9 4) (<= p1_8 4) (<= p1_7 4) (<= p1_6 4) (<= p1_5 4) (<= p1_4 4)
    (<= p1_3 4) (<= p1_2 4) (<= p1_1 4) (<= p1 4))
   (=>
    (and
     (= a_2
      (+ a (ite (= p1 1) 1 0) (ite (= p1_2 1) 1 0) (ite (= p1_1 1) 1 0)
       (ite (= p1_3 1) 1 0) (ite (= p1_4 1) 1 0)))
     (= c_1
      (+ c (ite (= p1 3) 1 0) (ite (= p1_2 3) 1 0) (ite (= p1_1 3) 1 0)
       (ite (= p1_3 3) 1 0) (ite (= p1_4 3) 1 0)))
     (= a_3
      (+ a_1 (ite (= p1 2) 1 0) (ite (= p1_2 2) 1 0) (ite (= p1_1 2) 1 0)
       (ite (= p1_3 2) 1 0) (ite (= p1_4 2) 1 0)))
     (=> (= p1 1) (and (= p1_5 (ite p2 4 0)) (iff p2_5 p2)))
     (=> (= p1 2) (and (= p1_5 (ite p2 3 0)) (iff p2_5 p2)))
     (=> (= p1 3) (and (= p1_5 (ite p2 4 2)) (iff p2_5 p2)))
     (=> (= p1 0) (and (or (= p1_5 1) (= p1_5 2)) p2_5))
     (=> (and (= p1 0) (= p1_5 1)) (<= a_1 a))
     (=> (and (= p1 0) (= p1_5 2)) (<= a a_1))
     (=> (= p1 4) (and (or (= p1_5 1) (= p1_5 3)) (not p2_5)))
     (=> (and (= p1 4) (= p1_5 1)) (<= c a))
     (=> (and (= p1 4) (= p1_5 3)) (<= a c))
     (=> (= p1_4 1) (and (= p1_9 (ite p2_4 4 0)) (iff p2_9 p2_4)))
     (=> (= p1_4 2) (and (= p1_9 (ite p2_4 3 0)) (iff p2_9 p2_4)))
     (=> (= p1_4 3) (and (= p1_9 (ite p2_4 4 2)) (iff p2_9 p2_4)))
     (=> (= p1_4 0) (and (or (= p1_9 1) (= p1_9 2)) p2_9))
     (=> (and (= p1_4 0) (= p1_9 1)) (<= a_1 a))
     (=> (and (= p1_4 0) (= p1_9 2)) (<= a a_1))
     (=> (= p1_4 4) (and (or (= p1_9 1) (= p1_9 3)) (not p2_9)))
     (=> (and (= p1_4 4) (= p1_9 1)) (<= c a))
     (=> (and (= p1_4 4) (= p1_9 3)) (<= a c))
     (=> (= p1_1 1) (and (= p1_6 (ite p2_1 4 0)) (iff p2_6 p2_1)))
     (=> (= p1_1 2) (and (= p1_6 (ite p2_1 3 0)) (iff p2_6 p2_1)))
     (=> (= p1_1 3) (and (= p1_6 (ite p2_1 4 2)) (iff p2_6 p2_1)))
     (=> (= p1_1 0) (and (or (= p1_6 1) (= p1_6 2)) p2_6))
     (=> (and (= p1_1 0) (= p1_6 1)) (<= a_1 a))
     (=> (and (= p1_1 0) (= p1_6 2)) (<= a a_1))
     (=> (= p1_1 4) (and (or (= p1_6 1) (= p1_6 3)) (not p2_6)))
     (=> (and (= p1_1 4) (= p1_6 1)) (<= c a))
     (=> (and (= p1_1 4) (= p1_6 3)) (<= a c))
     (=> (= p1_2 1) (and (= p1_7 (ite p2_2 4 0)) (iff p2_7 p2_2)))
     (=> (= p1_2 2) (and (= p1_7 (ite p2_2 3 0)) (iff p2_7 p2_2)))
     (=> (= p1_2 3) (and (= p1_7 (ite p2_2 4 2)) (iff p2_7 p2_2)))
     (=> (= p1_2 0) (and (or (= p1_7 1) (= p1_7 2)) p2_7))
     (=> (and (= p1_2 0) (= p1_7 1)) (<= a_1 a))
     (=> (and (= p1_2 0) (= p1_7 2)) (<= a a_1))
     (=> (= p1_2 4) (and (or (= p1_7 1) (= p1_7 3)) (not p2_7)))
     (=> (and (= p1_2 4) (= p1_7 1)) (<= c a))
     (=> (and (= p1_2 4) (= p1_7 3)) (<= a c))
     (=> (= p1_3 1) (and (= p1_8 (ite p2_3 4 0)) (iff p2_8 p2_3)))
     (=> (= p1_3 2) (and (= p1_8 (ite p2_3 3 0)) (iff p2_8 p2_3)))
     (=> (= p1_3 3) (and (= p1_8 (ite p2_3 4 2)) (iff p2_8 p2_3)))
     (=> (= p1_3 0) (and (or (= p1_8 1) (= p1_8 2)) p2_8))
     (=> (and (= p1_3 0) (= p1_8 1)) (<= a_1 a))
     (=> (and (= p1_3 0) (= p1_8 2)) (<= a a_1))
     (=> (= p1_3 4) (and (or (= p1_8 1) (= p1_8 3)) (not p2_8)))
     (=> (and (= p1_3 4) (= p1_8 1)) (<= c a))
     (=> (and (= p1_3 4) (= p1_8 3)) (<= a c))
     (= a_4
      (+ a_2 (ite (= p1_5 1) 1 0) (ite (= p1_7 1) 1 0) (ite (= p1_6 1) 1 0)
       (ite (= p1_8 1) 1 0) (ite (= p1_9 1) 1 0)))
     (= c_2
      (+ c_1 (ite (= p1_5 3) 1 0) (ite (= p1_7 3) 1 0) (ite (= p1_6 3) 1 0)
       (ite (= p1_8 3) 1 0) (ite (= p1_9 3) 1 0)))
     (= a_5
      (+ a_3 (ite (= p1_5 2) 1 0) (ite (= p1_7 2) 1 0) (ite (= p1_6 2) 1 0)
       (ite (= p1_8 2) 1 0) (ite (= p1_9 2) 1 0)))
     (=> (= p1_5 1) (and (= p1_10 (ite p2_5 4 0)) (iff p2_10 p2_5)))
     (=> (= p1_5 2) (and (= p1_10 (ite p2_5 3 0)) (iff p2_10 p2_5)))
     (=> (= p1_5 3) (and (= p1_10 (ite p2_5 4 2)) (iff p2_10 p2_5)))
     (=> (= p1_5 0) (and (or (= p1_10 1) (= p1_10 2)) p2_10))
     (=> (and (= p1_5 0) (= p1_10 1)) (<= a_3 a_2))
     (=> (and (= p1_5 0) (= p1_10 2)) (<= a_2 a_3))
     (=> (= p1_5 4) (and (or (= p1_10 1) (= p1_10 3)) (not p2_10)))
     (=> (and (= p1_5 4) (= p1_10 1)) (<= c_1 a_2))
     (=> (and (= p1_5 4) (= p1_10 3)) (<= a_2 c_1))
     (=> (= p1_9 1) (and (= p1_14 (ite p2_9 4 0)) (iff p2_14 p2_9)))
     (=> (= p1_9 2) (and (= p1_14 (ite p2_9 3 0)) (iff p2_14 p2_9)))
     (=> (= p1_9 3) (and (= p1_14 (ite p2_9 4 2)) (iff p2_14 p2_9)))
     (=> (= p1_9 0) (and (or (= p1_14 1) (= p1_14 2)) p2_14))
     (=> (and (= p1_9 0) (= p1_14 1)) (<= a_3 a_2))
     (=> (and (= p1_9 0) (= p1_14 2)) (<= a_2 a_3))
     (=> (= p1_9 4) (and (or (= p1_14 1) (= p1_14 3)) (not p2_14)))
     (=> (and (= p1_9 4) (= p1_14 1)) (<= c_1 a_2))
     (=> (and (= p1_9 4) (= p1_14 3)) (<= a_2 c_1))
     (=> (= p1_6 1) (and (= p1_11 (ite p2_6 4 0)) (iff p2_11 p2_6)))
     (=> (= p1_6 2) (and (= p1_11 (ite p2_6 3 0)) (iff p2_11 p2_6)))
     (=> (= p1_6 3) (and (= p1_11 (ite p2_6 4 2)) (iff p2_11 p2_6)))
     (=> (= p1_6 0) (and (or (= p1_11 1) (= p1_11 2)) p2_11))
     (=> (and (= p1_6 0) (= p1_11 1)) (<= a_3 a_2))
     (=> (and (= p1_6 0) (= p1_11 2)) (<= a_2 a_3))
     (=> (= p1_6 4) (and (or (= p1_11 1) (= p1_11 3)) (not p2_11)))
     (=> (and (= p1_6 4) (= p1_11 1)) (<= c_1 a_2))
     (=> (and (= p1_6 4) (= p1_11 3)) (<= a_2 c_1))
     (=> (= p1_7 1) (and (= p1_12 (ite p2_7 4 0)) (iff p2_12 p2_7)))
     (=> (= p1_7 2) (and (= p1_12 (ite p2_7 3 0)) (iff p2_12 p2_7)))
     (=> (= p1_7 3) (and (= p1_12 (ite p2_7 4 2)) (iff p2_12 p2_7)))
     (=> (= p1_7 0) (and (or (= p1_12 1) (= p1_12 2)) p2_12))
     (=> (and (= p1_7 0) (= p1_12 1)) (<= a_3 a_2))
     (=> (and (= p1_7 0) (= p1_12 2)) (<= a_2 a_3))
     (=> (= p1_7 4) (and (or (= p1_12 1) (= p1_12 3)) (not p2_12)))
     (=> (and (= p1_7 4) (= p1_12 1)) (<= c_1 a_2))
     (=> (and (= p1_7 4) (= p1_12 3)) (<= a_2 c_1))
     (=> (= p1_8 1) (and (= p1_13 (ite p2_8 4 0)) (iff p2_13 p2_8)))
     (=> (= p1_8 2) (and (= p1_13 (ite p2_8 3 0)) (iff p2_13 p2_8)))
     (=> (= p1_8 3) (and (= p1_13 (ite p2_8 4 2)) (iff p2_13 p2_8)))
     (=> (= p1_8 0) (and (or (= p1_13 1) (= p1_13 2)) p2_13))
     (=> (and (= p1_8 0) (= p1_13 1)) (<= a_3 a_2))
     (=> (and (= p1_8 0) (= p1_13 2)) (<= a_2 a_3))
     (=> (= p1_8 4) (and (or (= p1_13 1) (= p1_13 3)) (not p2_13)))
     (=> (and (= p1_8 4) (= p1_13 1)) (<= c_1 a_2))
     (=> (and (= p1_8 4) (= p1_13 3)) (<= a_2 c_1))
     (= a_6
      (+ a_4 (ite (= p1_10 1) 1 0) (ite (= p1_12 1) 1 0)
       (ite (= p1_11 1) 1 0) (ite (= p1_13 1) 1 0) (ite (= p1_14 1) 1 0)))
     (= c_3
      (+ c_2 (ite (= p1_10 3) 1 0) (ite (= p1_12 3) 1 0)
       (ite (= p1_11 3) 1 0) (ite (= p1_13 3) 1 0) (ite (= p1_14 3) 1 0)))
     (= a_7
      (+ a_5 (ite (= p1_10 2) 1 0) (ite (= p1_12 2) 1 0)
       (ite (= p1_11 2) 1 0) (ite (= p1_13 2) 1 0) (ite (= p1_14 2) 1 0)))
     (=> (= p1_10 1) (and (= p1_15 (ite p2_10 4 0)) (iff p2_15 p2_10)))
     (=> (= p1_10 2) (and (= p1_15 (ite p2_10 3 0)) (iff p2_15 p2_10)))
     (=> (= p1_10 3) (and (= p1_15 (ite p2_10 4 2)) (iff p2_15 p2_10)))
     (=> (= p1_10 0) (and (or (= p1_15 1) (= p1_15 2)) p2_15))
     (=> (and (= p1_10 0) (= p1_15 1)) (<= a_5 a_4))
     (=> (and (= p1_10 0) (= p1_15 2)) (<= a_4 a_5))
     (=> (= p1_10 4) (and (or (= p1_15 1) (= p1_15 3)) (not p2_15)))
     (=> (and (= p1_10 4) (= p1_15 1)) (<= c_2 a_4))
     (=> (and (= p1_10 4) (= p1_15 3)) (<= a_4 c_2))
     (=> (= p1_14 1) (and (= p1_19 (ite p2_14 4 0)) (iff p2_19 p2_14)))
     (=> (= p1_14 2) (and (= p1_19 (ite p2_14 3 0)) (iff p2_19 p2_14)))
     (=> (= p1_14 3) (and (= p1_19 (ite p2_14 4 2)) (iff p2_19 p2_14)))
     (=> (= p1_14 0) (and (or (= p1_19 1) (= p1_19 2)) p2_19))
     (=> (and (= p1_14 0) (= p1_19 1)) (<= a_5 a_4))
     (=> (and (= p1_14 0) (= p1_19 2)) (<= a_4 a_5))
     (=> (= p1_14 4) (and (or (= p1_19 1) (= p1_19 3)) (not p2_19)))
     (=> (and (= p1_14 4) (= p1_19 1)) (<= c_2 a_4))
     (=> (and (= p1_14 4) (= p1_19 3)) (<= a_4 c_2))
     (=> (= p1_11 1) (and (= p1_16 (ite p2_11 4 0)) (iff p2_16 p2_11)))
     (=> (= p1_11 2) (and (= p1_16 (ite p2_11 3 0)) (iff p2_16 p2_11)))
     (=> (= p1_11 3) (and (= p1_16 (ite p2_11 4 2)) (iff p2_16 p2_11)))
     (=> (= p1_11 0) (and (or (= p1_16 1) (= p1_16 2)) p2_16))
     (=> (and (= p1_11 0) (= p1_16 1)) (<= a_5 a_4))
     (=> (and (= p1_11 0) (= p1_16 2)) (<= a_4 a_5))
     (=> (= p1_11 4) (and (or (= p1_16 1) (= p1_16 3)) (not p2_16)))
     (=> (and (= p1_11 4) (= p1_16 1)) (<= c_2 a_4))
     (=> (and (= p1_11 4) (= p1_16 3)) (<= a_4 c_2))
     (=> (= p1_12 1) (and (= p1_17 (ite p2_12 4 0)) (iff p2_17 p2_12)))
     (=> (= p1_12 2) (and (= p1_17 (ite p2_12 3 0)) (iff p2_17 p2_12)))
     (=> (= p1_12 3) (and (= p1_17 (ite p2_12 4 2)) (iff p2_17 p2_12)))
     (=> (= p1_12 0) (and (or (= p1_17 1) (= p1_17 2)) p2_17))
     (=> (and (= p1_12 0) (= p1_17 1)) (<= a_5 a_4))
     (=> (and (= p1_12 0) (= p1_17 2)) (<= a_4 a_5))
     (=> (= p1_12 4) (and (or (= p1_17 1) (= p1_17 3)) (not p2_17)))
     (=> (and (= p1_12 4) (= p1_17 1)) (<= c_2 a_4))
     (=> (and (= p1_12 4) (= p1_17 3)) (<= a_4 c_2))
     (=> (= p1_13 1) (and (= p1_18 (ite p2_13 4 0)) (iff p2_18 p2_13)))
     (=> (= p1_13 2) (and (= p1_18 (ite p2_13 3 0)) (iff p2_18 p2_13)))
     (=> (= p1_13 3) (and (= p1_18 (ite p2_13 4 2)) (iff p2_18 p2_13)))
     (=> (= p1_13 0) (and (or (= p1_18 1) (= p1_18 2)) p2_18))
     (=> (and (= p1_13 0) (= p1_18 1)) (<= a_5 a_4))
     (=> (and (= p1_13 0) (= p1_18 2)) (<= a_4 a_5))
     (=> (= p1_13 4) (and (or (= p1_18 1) (= p1_18 3)) (not p2_18)))
     (=> (and (= p1_13 4) (= p1_18 1)) (<= c_2 a_4))
     (=> (and (= p1_13 4) (= p1_18 3)) (<= a_4 c_2))
     (> a (ite (<= a_1 c) c a_1)) (> a_2 (ite (<= a_3 c_1) c_1 a_3))
     (> a_4 (ite (<= a_5 c_2) c_2 a_5)))
    (> a_6 (ite (<= a_7 c_3) c_3 a_7))))))
(check-sat)
